p cnf 469 3058
5 6 7 8 9 0
10 11 12 13 14 0
15 16 17 18 19 0
20 21 22 23 24 0
25 26 27 28 29 0
30 31 32 33 34 0
35 36 37 38 39 0
40 41 42 43 44 0
45 46 47 48 49 0
50 51 52 53 54 0
55 56 57 58 59 0
60 61 62 63 64 0
65 66 67 68 69 0
70 71 72 73 74 0
75 76 77 78 79 0
80 81 82 83 84 0
85 86 87 88 89 0
90 91 92 93 94 0
95 96 97 98 99 0
100 101 102 103 104 0
105 106 107 108 109 0
110 111 112 113 114 0
115 116 117 118 119 0
120 121 122 123 124 0
125 126 127 128 129 0
130 131 132 133 134 0
135 136 137 138 139 0
140 141 142 143 144 0
145 146 147 148 149 0
150 151 152 153 154 0
155 156 157 158 159 0
160 161 162 163 164 0
165 166 167 168 169 0
170 171 172 173 174 0
175 176 177 178 179 0
180 181 182 183 184 0
185 186 187 188 189 0
190 191 192 193 194 0
195 196 197 198 199 0
200 201 202 203 204 0
205 206 207 208 209 0
210 211 212 213 214 0
215 216 217 218 219 0
220 221 222 223 224 0
225 226 227 228 229 0
230 231 232 233 234 0
235 236 237 238 239 0
240 241 242 243 244 0
245 246 247 248 249 0
250 251 252 253 254 0
255 256 257 258 259 0
260 261 262 263 264 0
265 266 267 268 269 0
270 271 272 273 274 0
275 276 277 278 279 0
280 281 282 283 284 0
285 286 287 288 289 0
290 291 292 293 294 0
295 296 297 298 299 0
300 301 302 303 304 0
305 306 307 308 309 0
310 311 312 313 314 0
315 316 317 318 319 0
320 321 322 323 324 0
325 326 327 328 329 0
330 331 332 333 334 0
335 336 337 338 339 0
340 341 342 343 344 0
345 346 347 348 349 0
350 351 352 353 354 0
355 356 357 358 359 0
360 361 362 363 364 0
365 366 367 368 369 0
370 371 372 373 374 0
375 376 377 378 379 0
380 381 382 383 384 0
385 386 387 388 389 0
390 391 392 393 394 0
395 396 397 398 399 0
400 401 402 403 404 0
405 406 407 408 409 0
410 411 412 413 414 0
415 416 417 418 419 0
420 421 422 423 424 0
425 426 427 428 429 0
430 431 432 433 434 0
435 436 437 438 439 0
440 441 442 443 444 0
445 446 447 448 449 0
450 451 452 453 454 0
455 456 457 458 459 0
460 461 462 463 464 0
465 466 467 468 469 0
-5 -160 0
-6 -161 0
-7 -162 0
-8 -163 0
-9 -164 0
-5 -10 0
-6 -11 0
-7 -12 0
-8 -13 0
-9 -14 0
-5 -170 0
-6 -171 0
-7 -172 0
-8 -173 0
-9 -174 0
-5 -20 0
-6 -21 0
-7 -22 0
-8 -23 0
-9 -24 0
-5 -205 0
-6 -206 0
-7 -207 0
-8 -208 0
-9 -209 0
-5 -55 0
-6 -56 0
-7 -57 0
-8 -58 0
-9 -59 0
-5 -215 0
-6 -216 0
-7 -217 0
-8 -218 0
-9 -219 0
-5 -65 0
-6 -66 0
-7 -67 0
-8 -68 0
-9 -69 0
-10 -165 0
-11 -166 0
-12 -167 0
-13 -168 0
-14 -169 0
-10 -15 0
-11 -16 0
-12 -17 0
-13 -18 0
-14 -19 0
-10 -200 0
-11 -201 0
-12 -202 0
-13 -203 0
-14 -204 0
-10 -50 0
-11 -51 0
-12 -52 0
-13 -53 0
-14 -54 0
-10 -210 0
-11 -211 0
-12 -212 0
-13 -213 0
-14 -214 0
-10 -60 0
-11 -61 0
-12 -62 0
-13 -63 0
-14 -64 0
-10 -155 0
-11 -156 0
-12 -157 0
-13 -158 0
-14 -159 0
-15 -160 0
-16 -161 0
-17 -162 0
-18 -163 0
-19 -164 0
-15 -180 0
-16 -181 0
-17 -182 0
-18 -183 0
-19 -184 0
-15 -30 0
-16 -31 0
-17 -32 0
-18 -33 0
-19 -34 0
-15 -190 0
-16 -191 0
-17 -192 0
-18 -193 0
-19 -194 0
-15 -40 0
-16 -41 0
-17 -42 0
-18 -43 0
-19 -44 0
-15 -205 0
-16 -206 0
-17 -207 0
-18 -208 0
-19 -209 0
-15 -55 0
-16 -56 0
-17 -57 0
-18 -58 0
-19 -59 0
-15 -225 0
-16 -226 0
-17 -227 0
-18 -228 0
-19 -229 0
-15 -75 0
-16 -76 0
-17 -77 0
-18 -78 0
-19 -79 0
-15 -235 0
-16 -236 0
-17 -237 0
-18 -238 0
-19 -239 0
-15 -85 0
-16 -86 0
-17 -87 0
-18 -88 0
-19 -89 0
-20 -175 0
-21 -176 0
-22 -177 0
-23 -178 0
-24 -179 0
-20 -25 0
-21 -26 0
-22 -27 0
-23 -28 0
-24 -29 0
-20 -190 0
-21 -191 0
-22 -192 0
-23 -193 0
-24 -194 0
-20 -40 0
-21 -41 0
-22 -42 0
-23 -43 0
-24 -44 0
-20 -200 0
-21 -201 0
-22 -202 0
-23 -203 0
-24 -204 0
-20 -50 0
-21 -51 0
-22 -52 0
-23 -53 0
-24 -54 0
-20 -220 0
-21 -221 0
-22 -222 0
-23 -223 0
-24 -224 0
-20 -70 0
-21 -71 0
-22 -72 0
-23 -73 0
-24 -74 0
-20 -235 0
-21 -236 0
-22 -237 0
-23 -238 0
-24 -239 0
-20 -85 0
-21 -86 0
-22 -87 0
-23 -88 0
-24 -89 0
-20 -155 0
-21 -156 0
-22 -157 0
-23 -158 0
-24 -159 0
-25 -170 0
-26 -171 0
-27 -172 0
-28 -173 0
-29 -174 0
-25 -185 0
-26 -186 0
-27 -187 0
-28 -188 0
-29 -189 0
-25 -35 0
-26 -36 0
-27 -37 0
-28 -38 0
-29 -39 0
-25 -195 0
-26 -196 0
-27 -197 0
-28 -198 0
-29 -199 0
-25 -45 0
-26 -46 0
-27 -47 0
-28 -48 0
-29 -49 0
-25 -215 0
-26 -216 0
-27 -217 0
-28 -218 0
-29 -219 0
-25 -65 0
-26 -66 0
-27 -67 0
-28 -68 0
-29 -69 0
-25 -230 0
-26 -231 0
-27 -232 0
-28 -233 0
-29 -234 0
-25 -80 0
-26 -81 0
-27 -82 0
-28 -83 0
-29 -84 0
-25 -240 0
-26 -241 0
-27 -242 0
-28 -243 0
-29 -244 0
-25 -90 0
-26 -91 0
-27 -92 0
-28 -93 0
-29 -94 0
-30 -165 0
-31 -166 0
-32 -167 0
-33 -168 0
-34 -169 0
-30 -185 0
-31 -186 0
-32 -187 0
-33 -188 0
-34 -189 0
-30 -35 0
-31 -36 0
-32 -37 0
-33 -38 0
-34 -39 0
-30 -195 0
-31 -196 0
-32 -197 0
-33 -198 0
-34 -199 0
-30 -45 0
-31 -46 0
-32 -47 0
-33 -48 0
-34 -49 0
-30 -210 0
-31 -211 0
-32 -212 0
-33 -213 0
-34 -214 0
-30 -60 0
-31 -61 0
-32 -62 0
-33 -63 0
-34 -64 0
-30 -230 0
-31 -231 0
-32 -232 0
-33 -233 0
-34 -234 0
-30 -80 0
-31 -81 0
-32 -82 0
-33 -83 0
-34 -84 0
-30 -240 0
-31 -241 0
-32 -242 0
-33 -243 0
-34 -244 0
-30 -90 0
-31 -91 0
-32 -92 0
-33 -93 0
-34 -94 0
-35 -175 0
-36 -176 0
-37 -177 0
-38 -178 0
-39 -179 0
-35 -180 0
-36 -181 0
-37 -182 0
-38 -183 0
-39 -184 0
-35 -190 0
-36 -191 0
-37 -192 0
-38 -193 0
-39 -194 0
-35 -40 0
-36 -41 0
-37 -42 0
-38 -43 0
-39 -44 0
-35 -45 0
-36 -46 0
-37 -47 0
-38 -48 0
-39 -49 0
-35 -195 0
-36 -196 0
-37 -197 0
-38 -198 0
-39 -199 0
-35 -220 0
-36 -221 0
-37 -222 0
-38 -223 0
-39 -224 0
-35 -225 0
-36 -226 0
-37 -227 0
-38 -228 0
-39 -229 0
-35 -70 0
-36 -71 0
-37 -72 0
-38 -73 0
-39 -74 0
-35 -75 0
-36 -76 0
-37 -77 0
-38 -78 0
-39 -79 0
-35 -235 0
-36 -236 0
-37 -237 0
-38 -238 0
-39 -239 0
-35 -85 0
-36 -86 0
-37 -87 0
-38 -88 0
-39 -89 0
-35 -90 0
-36 -91 0
-37 -92 0
-38 -93 0
-39 -94 0
-35 -240 0
-36 -241 0
-37 -242 0
-38 -243 0
-39 -244 0
-40 -165 0
-41 -166 0
-42 -167 0
-43 -168 0
-44 -169 0
-40 -170 0
-41 -171 0
-42 -172 0
-43 -173 0
-44 -174 0
-40 -185 0
-41 -186 0
-42 -187 0
-43 -188 0
-44 -189 0
-40 -195 0
-41 -196 0
-42 -197 0
-43 -198 0
-44 -199 0
-40 -45 0
-41 -46 0
-42 -47 0
-43 -48 0
-44 -49 0
-40 -210 0
-41 -211 0
-42 -212 0
-43 -213 0
-44 -214 0
-40 -215 0
-41 -216 0
-42 -217 0
-43 -218 0
-44 -219 0
-40 -60 0
-41 -61 0
-42 -62 0
-43 -63 0
-44 -64 0
-40 -65 0
-41 -66 0
-42 -67 0
-43 -68 0
-44 -69 0
-40 -230 0
-41 -231 0
-42 -232 0
-43 -233 0
-44 -234 0
-40 -80 0
-41 -81 0
-42 -82 0
-43 -83 0
-44 -84 0
-40 -240 0
-41 -241 0
-42 -242 0
-43 -243 0
-44 -244 0
-40 -90 0
-41 -91 0
-42 -92 0
-43 -93 0
-44 -94 0
-45 -175 0
-46 -176 0
-47 -177 0
-48 -178 0
-49 -179 0
-45 -180 0
-46 -181 0
-47 -182 0
-48 -183 0
-49 -184 0
-45 -185 0
-46 -186 0
-47 -187 0
-48 -188 0
-49 -189 0
-45 -190 0
-46 -191 0
-47 -192 0
-48 -193 0
-49 -194 0
-45 -220 0
-46 -221 0
-47 -222 0
-48 -223 0
-49 -224 0
-45 -225 0
-46 -226 0
-47 -227 0
-48 -228 0
-49 -229 0
-45 -70 0
-46 -71 0
-47 -72 0
-48 -73 0
-49 -74 0
-45 -75 0
-46 -76 0
-47 -77 0
-48 -78 0
-49 -79 0
-45 -80 0
-46 -81 0
-47 -82 0
-48 -83 0
-49 -84 0
-45 -85 0
-46 -86 0
-47 -87 0
-48 -88 0
-49 -89 0
-45 -230 0
-46 -231 0
-47 -232 0
-48 -233 0
-49 -234 0
-45 -235 0
-46 -236 0
-47 -237 0
-48 -238 0
-49 -239 0
-50 -160 0
-51 -161 0
-52 -162 0
-53 -163 0
-54 -164 0
-50 -170 0
-51 -171 0
-52 -172 0
-53 -173 0
-54 -174 0
-50 -250 0
-51 -251 0
-52 -252 0
-53 -253 0
-54 -254 0
-50 -100 0
-51 -101 0
-52 -102 0
-53 -103 0
-54 -104 0
-50 -260 0
-51 -261 0
-52 -262 0
-53 -263 0
-54 -264 0
-50 -110 0
-51 -111 0
-52 -112 0
-53 -113 0
-54 -114 0
-50 -295 0
-51 -296 0
-52 -297 0
-53 -298 0
-54 -299 0
-50 -145 0
-51 -146 0
-52 -147 0
-53 -148 0
-54 -149 0
-55 -165 0
-56 -166 0
-57 -167 0
-58 -168 0
-59 -169 0
-55 -245 0
-56 -246 0
-57 -247 0
-58 -248 0
-59 -249 0
-55 -95 0
-56 -96 0
-57 -97 0
-58 -98 0
-59 -99 0
-55 -255 0
-56 -256 0
-57 -257 0
-58 -258 0
-59 -259 0
-55 -105 0
-56 -106 0
-57 -107 0
-58 -108 0
-59 -109 0
-55 -295 0
-56 -296 0
-57 -297 0
-58 -298 0
-59 -299 0
-55 -145 0
-56 -146 0
-57 -147 0
-58 -148 0
-59 -149 0
-55 -155 0
-56 -156 0
-57 -157 0
-58 -158 0
-59 -159 0
-60 -160 0
-61 -161 0
-62 -162 0
-63 -163 0
-64 -164 0
-60 -280 0
-61 -281 0
-62 -282 0
-63 -283 0
-64 -284 0
-60 -180 0
-61 -181 0
-62 -182 0
-63 -183 0
-64 -184 0
-60 -190 0
-61 -191 0
-62 -192 0
-63 -193 0
-64 -194 0
-60 -250 0
-61 -251 0
-62 -252 0
-63 -253 0
-64 -254 0
-60 -100 0
-61 -101 0
-62 -102 0
-63 -103 0
-64 -104 0
-60 -270 0
-61 -271 0
-62 -272 0
-63 -273 0
-64 -274 0
-60 -120 0
-61 -121 0
-62 -122 0
-63 -123 0
-64 -124 0
-60 -130 0
-61 -131 0
-62 -132 0
-63 -133 0
-64 -134 0
-60 -295 0
-61 -296 0
-62 -297 0
-63 -298 0
-64 -299 0
-60 -145 0
-61 -146 0
-62 -147 0
-63 -148 0
-64 -149 0
-65 -175 0
-66 -176 0
-67 -177 0
-68 -178 0
-69 -179 0
-65 -190 0
-66 -191 0
-67 -192 0
-68 -193 0
-69 -194 0
-65 -245 0
-66 -246 0
-67 -247 0
-68 -248 0
-69 -249 0
-65 -95 0
-66 -96 0
-67 -97 0
-68 -98 0
-69 -99 0
-65 -265 0
-66 -266 0
-67 -267 0
-68 -268 0
-69 -269 0
-65 -115 0
-66 -116 0
-67 -117 0
-68 -118 0
-69 -119 0
-65 -280 0
-66 -281 0
-67 -282 0
-68 -283 0
-69 -284 0
-65 -130 0
-66 -131 0
-67 -132 0
-68 -133 0
-69 -134 0
-65 -295 0
-66 -296 0
-67 -297 0
-68 -298 0
-69 -299 0
-65 -145 0
-66 -146 0
-67 -147 0
-68 -148 0
-69 -149 0
-65 -155 0
-66 -156 0
-67 -157 0
-68 -158 0
-69 -159 0
-70 -170 0
-71 -171 0
-72 -172 0
-73 -173 0
-74 -174 0
-70 -185 0
-71 -186 0
-72 -187 0
-73 -188 0
-74 -189 0
-70 -195 0
-71 -196 0
-72 -197 0
-73 -198 0
-74 -199 0
-70 -295 0
-71 -296 0
-72 -297 0
-73 -298 0
-74 -299 0
-70 -260 0
-71 -261 0
-72 -262 0
-73 -263 0
-74 -264 0
-70 -110 0
-71 -111 0
-72 -112 0
-73 -113 0
-74 -114 0
-70 -275 0
-71 -276 0
-72 -277 0
-73 -278 0
-74 -279 0
-70 -125 0
-71 -126 0
-72 -127 0
-73 -128 0
-74 -129 0
-70 -135 0
-71 -136 0
-72 -137 0
-73 -138 0
-74 -139 0
-70 -145 0
-71 -146 0
-72 -147 0
-73 -148 0
-74 -149 0
-70 -285 0
-71 -286 0
-72 -287 0
-73 -288 0
-74 -289 0
-75 -165 0
-76 -166 0
-77 -167 0
-78 -168 0
-79 -169 0
-75 -185 0
-76 -186 0
-77 -187 0
-78 -188 0
-79 -189 0
-75 -195 0
-76 -196 0
-77 -197 0
-78 -198 0
-79 -199 0
-75 -295 0
-76 -296 0
-77 -297 0
-78 -298 0
-79 -299 0
-75 -255 0
-76 -256 0
-77 -257 0
-78 -258 0
-79 -259 0
-75 -105 0
-76 -106 0
-77 -107 0
-78 -108 0
-79 -109 0
-75 -275 0
-76 -276 0
-77 -277 0
-78 -278 0
-79 -279 0
-75 -125 0
-76 -126 0
-77 -127 0
-78 -128 0
-79 -129 0
-75 -135 0
-76 -136 0
-77 -137 0
-78 -138 0
-79 -139 0
-75 -145 0
-76 -146 0
-77 -147 0
-78 -148 0
-79 -149 0
-75 -285 0
-76 -286 0
-77 -287 0
-78 -288 0
-79 -289 0
-80 -175 0
-81 -176 0
-82 -177 0
-83 -178 0
-84 -179 0
-80 -180 0
-81 -181 0
-82 -182 0
-83 -183 0
-84 -184 0
-80 -190 0
-81 -191 0
-82 -192 0
-83 -193 0
-84 -194 0
-80 -195 0
-81 -196 0
-82 -197 0
-83 -198 0
-84 -199 0
-80 -280 0
-81 -281 0
-82 -282 0
-83 -283 0
-84 -284 0
-80 -295 0
-81 -296 0
-82 -297 0
-83 -298 0
-84 -299 0
-80 -265 0
-81 -266 0
-82 -267 0
-83 -268 0
-84 -269 0
-80 -270 0
-81 -271 0
-82 -272 0
-83 -273 0
-84 -274 0
-80 -115 0
-81 -116 0
-82 -117 0
-83 -118 0
-84 -119 0
-80 -120 0
-81 -121 0
-82 -122 0
-83 -123 0
-84 -124 0
-80 -285 0
-81 -286 0
-82 -287 0
-83 -288 0
-84 -289 0
-80 -130 0
-81 -131 0
-82 -132 0
-83 -133 0
-84 -134 0
-80 -135 0
-81 -136 0
-82 -137 0
-83 -138 0
-84 -139 0
-80 -145 0
-81 -146 0
-82 -147 0
-83 -148 0
-84 -149 0
-85 -165 0
-86 -166 0
-87 -167 0
-88 -168 0
-89 -169 0
-85 -170 0
-86 -171 0
-87 -172 0
-88 -173 0
-89 -174 0
-85 -185 0
-86 -186 0
-87 -187 0
-88 -188 0
-89 -189 0
-85 -195 0
-86 -196 0
-87 -197 0
-88 -198 0
-89 -199 0
-85 -295 0
-86 -296 0
-87 -297 0
-88 -298 0
-89 -299 0
-85 -255 0
-86 -256 0
-87 -257 0
-88 -258 0
-89 -259 0
-85 -260 0
-86 -261 0
-87 -262 0
-88 -263 0
-89 -264 0
-85 -105 0
-86 -106 0
-87 -107 0
-88 -108 0
-89 -109 0
-85 -110 0
-86 -111 0
-87 -112 0
-88 -113 0
-89 -114 0
-85 -275 0
-86 -276 0
-87 -277 0
-88 -278 0
-89 -279 0
-85 -125 0
-86 -126 0
-87 -127 0
-88 -128 0
-89 -129 0
-85 -135 0
-86 -136 0
-87 -137 0
-88 -138 0
-89 -139 0
-85 -145 0
-86 -146 0
-87 -147 0
-88 -148 0
-89 -149 0
-85 -285 0
-86 -286 0
-87 -287 0
-88 -288 0
-89 -289 0
-90 -175 0
-91 -176 0
-92 -177 0
-93 -178 0
-94 -179 0
-90 -180 0
-91 -181 0
-92 -182 0
-93 -183 0
-94 -184 0
-90 -185 0
-91 -186 0
-92 -187 0
-93 -188 0
-94 -189 0
-90 -190 0
-91 -191 0
-92 -192 0
-93 -193 0
-94 -194 0
-90 -280 0
-91 -281 0
-92 -282 0
-93 -283 0
-94 -284 0
-90 -295 0
-91 -296 0
-92 -297 0
-93 -298 0
-94 -299 0
-90 -265 0
-91 -266 0
-92 -267 0
-93 -268 0
-94 -269 0
-90 -270 0
-91 -271 0
-92 -272 0
-93 -273 0
-94 -274 0
-90 -115 0
-91 -116 0
-92 -117 0
-93 -118 0
-94 -119 0
-90 -120 0
-91 -121 0
-92 -122 0
-93 -123 0
-94 -124 0
-90 -125 0
-91 -126 0
-92 -127 0
-93 -128 0
-94 -129 0
-90 -130 0
-91 -131 0
-92 -132 0
-93 -133 0
-94 -134 0
-90 -275 0
-91 -276 0
-92 -277 0
-93 -278 0
-94 -279 0
-90 -145 0
-91 -146 0
-92 -147 0
-93 -148 0
-94 -149 0
-95 -205 0
-96 -206 0
-97 -207 0
-98 -208 0
-99 -209 0
-95 -215 0
-96 -216 0
-97 -217 0
-98 -218 0
-99 -219 0
-95 -300 0
-96 -301 0
-97 -302 0
-98 -303 0
-99 -304 0
-95 -290 0
-96 -291 0
-97 -292 0
-98 -293 0
-99 -294 0
-95 -140 0
-96 -141 0
-97 -142 0
-98 -143 0
-99 -144 0
-95 -150 0
-96 -151 0
-97 -152 0
-98 -153 0
-99 -154 0
-100 -200 0
-101 -201 0
-102 -202 0
-103 -203 0
-104 -204 0
-100 -210 0
-101 -211 0
-102 -212 0
-103 -213 0
-104 -214 0
-100 -300 0
-101 -301 0
-102 -302 0
-103 -303 0
-104 -304 0
-100 -290 0
-101 -291 0
-102 -292 0
-103 -293 0
-104 -294 0
-100 -140 0
-101 -141 0
-102 -142 0
-103 -143 0
-104 -144 0
-100 -150 0
-101 -151 0
-102 -152 0
-103 -153 0
-104 -154 0
-105 -205 0
-106 -206 0
-107 -207 0
-108 -208 0
-109 -209 0
-105 -225 0
-106 -226 0
-107 -227 0
-108 -228 0
-109 -229 0
-105 -300 0
-106 -301 0
-107 -302 0
-108 -303 0
-109 -304 0
-105 -235 0
-106 -236 0
-107 -237 0
-108 -238 0
-109 -239 0
-105 -290 0
-106 -291 0
-107 -292 0
-108 -293 0
-109 -294 0
-105 -140 0
-106 -141 0
-107 -142 0
-108 -143 0
-109 -144 0
-105 -150 0
-106 -151 0
-107 -152 0
-108 -153 0
-109 -154 0
-110 -200 0
-111 -201 0
-112 -202 0
-113 -203 0
-114 -204 0
-110 -220 0
-111 -221 0
-112 -222 0
-113 -223 0
-114 -224 0
-110 -235 0
-111 -236 0
-112 -237 0
-113 -238 0
-114 -239 0
-110 -300 0
-111 -301 0
-112 -302 0
-113 -303 0
-114 -304 0
-110 -290 0
-111 -291 0
-112 -292 0
-113 -293 0
-114 -294 0
-110 -140 0
-111 -141 0
-112 -142 0
-113 -143 0
-114 -144 0
-110 -150 0
-111 -151 0
-112 -152 0
-113 -153 0
-114 -154 0
-115 -215 0
-116 -216 0
-117 -217 0
-118 -218 0
-119 -219 0
-115 -230 0
-116 -231 0
-117 -232 0
-118 -233 0
-119 -234 0
-115 -300 0
-116 -301 0
-117 -302 0
-118 -303 0
-119 -304 0
-115 -240 0
-116 -241 0
-117 -242 0
-118 -243 0
-119 -244 0
-115 -290 0
-116 -291 0
-117 -292 0
-118 -293 0
-119 -294 0
-115 -140 0
-116 -141 0
-117 -142 0
-118 -143 0
-119 -144 0
-115 -150 0
-116 -151 0
-117 -152 0
-118 -153 0
-119 -154 0
-120 -210 0
-121 -211 0
-122 -212 0
-123 -213 0
-124 -214 0
-120 -230 0
-121 -231 0
-122 -232 0
-123 -233 0
-124 -234 0
-120 -300 0
-121 -301 0
-122 -302 0
-123 -303 0
-124 -304 0
-120 -240 0
-121 -241 0
-122 -242 0
-123 -243 0
-124 -244 0
-120 -290 0
-121 -291 0
-122 -292 0
-123 -293 0
-124 -294 0
-120 -140 0
-121 -141 0
-122 -142 0
-123 -143 0
-124 -144 0
-120 -150 0
-121 -151 0
-122 -152 0
-123 -153 0
-124 -154 0
-125 -220 0
-126 -221 0
-127 -222 0
-128 -223 0
-129 -224 0
-125 -225 0
-126 -226 0
-127 -227 0
-128 -228 0
-129 -229 0
-125 -235 0
-126 -236 0
-127 -237 0
-128 -238 0
-129 -239 0
-125 -240 0
-126 -241 0
-127 -242 0
-128 -243 0
-129 -244 0
-125 -300 0
-126 -301 0
-127 -302 0
-128 -303 0
-129 -304 0
-125 -290 0
-126 -291 0
-127 -292 0
-128 -293 0
-129 -294 0
-125 -140 0
-126 -141 0
-127 -142 0
-128 -143 0
-129 -144 0
-125 -150 0
-126 -151 0
-127 -152 0
-128 -153 0
-129 -154 0
-130 -210 0
-131 -211 0
-132 -212 0
-133 -213 0
-134 -214 0
-130 -215 0
-131 -216 0
-132 -217 0
-133 -218 0
-134 -219 0
-130 -230 0
-131 -231 0
-132 -232 0
-133 -233 0
-134 -234 0
-130 -300 0
-131 -301 0
-132 -302 0
-133 -303 0
-134 -304 0
-130 -240 0
-131 -241 0
-132 -242 0
-133 -243 0
-134 -244 0
-130 -290 0
-131 -291 0
-132 -292 0
-133 -293 0
-134 -294 0
-130 -140 0
-131 -141 0
-132 -142 0
-133 -143 0
-134 -144 0
-130 -150 0
-131 -151 0
-132 -152 0
-133 -153 0
-134 -154 0
-135 -220 0
-136 -221 0
-137 -222 0
-138 -223 0
-139 -224 0
-135 -225 0
-136 -226 0
-137 -227 0
-138 -228 0
-139 -229 0
-135 -230 0
-136 -231 0
-137 -232 0
-138 -233 0
-139 -234 0
-135 -235 0
-136 -236 0
-137 -237 0
-138 -238 0
-139 -239 0
-135 -300 0
-136 -301 0
-137 -302 0
-138 -303 0
-139 -304 0
-135 -290 0
-136 -291 0
-137 -292 0
-138 -293 0
-139 -294 0
-135 -140 0
-136 -141 0
-137 -142 0
-138 -143 0
-139 -144 0
-135 -150 0
-136 -151 0
-137 -152 0
-138 -153 0
-139 -154 0
-140 -145 0
-141 -146 0
-142 -147 0
-143 -148 0
-144 -149 0
-140 -150 0
-141 -151 0
-142 -152 0
-143 -153 0
-144 -154 0
-140 -245 0
-141 -246 0
-142 -247 0
-143 -248 0
-144 -249 0
-140 -250 0
-141 -251 0
-142 -252 0
-143 -253 0
-144 -254 0
-140 -255 0
-141 -256 0
-142 -257 0
-143 -258 0
-144 -259 0
-140 -260 0
-141 -261 0
-142 -262 0
-143 -263 0
-144 -264 0
-140 -265 0
-141 -266 0
-142 -267 0
-143 -268 0
-144 -269 0
-140 -270 0
-141 -271 0
-142 -272 0
-143 -273 0
-144 -274 0
-140 -275 0
-141 -276 0
-142 -277 0
-143 -278 0
-144 -279 0
-140 -280 0
-141 -281 0
-142 -282 0
-143 -283 0
-144 -284 0
-140 -285 0
-141 -286 0
-142 -287 0
-143 -288 0
-144 -289 0
-140 -295 0
-141 -296 0
-142 -297 0
-143 -298 0
-144 -299 0
-140 -300 0
-141 -301 0
-142 -302 0
-143 -303 0
-144 -304 0
-145 -150 0
-146 -151 0
-147 -152 0
-148 -153 0
-149 -154 0
-145 -200 0
-146 -201 0
-147 -202 0
-148 -203 0
-149 -204 0
-145 -205 0
-146 -206 0
-147 -207 0
-148 -208 0
-149 -209 0
-145 -210 0
-146 -211 0
-147 -212 0
-148 -213 0
-149 -214 0
-145 -215 0
-146 -216 0
-147 -217 0
-148 -218 0
-149 -219 0
-145 -220 0
-146 -221 0
-147 -222 0
-148 -223 0
-149 -224 0
-145 -225 0
-146 -226 0
-147 -227 0
-148 -228 0
-149 -229 0
-145 -230 0
-146 -231 0
-147 -232 0
-148 -233 0
-149 -234 0
-145 -235 0
-146 -236 0
-147 -237 0
-148 -238 0
-149 -239 0
-145 -240 0
-146 -241 0
-147 -242 0
-148 -243 0
-149 -244 0
-145 -290 0
-146 -291 0
-147 -292 0
-148 -293 0
-149 -294 0
-145 -300 0
-146 -301 0
-147 -302 0
-148 -303 0
-149 -304 0
-150 -245 0
-151 -246 0
-152 -247 0
-153 -248 0
-154 -249 0
-150 -250 0
-151 -251 0
-152 -252 0
-153 -253 0
-154 -254 0
-150 -255 0
-151 -256 0
-152 -257 0
-153 -258 0
-154 -259 0
-150 -260 0
-151 -261 0
-152 -262 0
-153 -263 0
-154 -264 0
-150 -265 0
-151 -266 0
-152 -267 0
-153 -268 0
-154 -269 0
-150 -270 0
-151 -271 0
-152 -272 0
-153 -273 0
-154 -274 0
-150 -275 0
-151 -276 0
-152 -277 0
-153 -278 0
-154 -279 0
-150 -280 0
-151 -281 0
-152 -282 0
-153 -283 0
-154 -284 0
-150 -285 0
-151 -286 0
-152 -287 0
-153 -288 0
-154 -289 0
-150 -290 0
-151 -291 0
-152 -292 0
-153 -293 0
-154 -294 0
-150 -295 0
-151 -296 0
-152 -297 0
-153 -298 0
-154 -299 0
-155 -320 0
-156 -321 0
-157 -322 0
-158 -323 0
-159 -324 0
-155 -355 0
-156 -356 0
-157 -357 0
-158 -358 0
-159 -359 0
-155 -365 0
-156 -366 0
-157 -367 0
-158 -368 0
-159 -369 0
-155 -460 0
-156 -461 0
-157 -462 0
-158 -463 0
-159 -464 0
-155 -310 0
-156 -311 0
-157 -312 0
-158 -313 0
-159 -314 0
-160 -350 0
-161 -351 0
-162 -352 0
-163 -353 0
-164 -354 0
-160 -360 0
-161 -361 0
-162 -362 0
-163 -363 0
-164 -364 0
-160 -460 0
-161 -461 0
-162 -462 0
-163 -463 0
-164 -464 0
-160 -305 0
-161 -306 0
-162 -307 0
-163 -308 0
-164 -309 0
-160 -315 0
-161 -316 0
-162 -317 0
-163 -318 0
-164 -319 0
-165 -330 0
-166 -331 0
-167 -332 0
-168 -333 0
-169 -334 0
-165 -340 0
-166 -341 0
-167 -342 0
-168 -343 0
-169 -344 0
-165 -355 0
-166 -356 0
-167 -357 0
-168 -358 0
-169 -359 0
-165 -375 0
-166 -376 0
-167 -377 0
-168 -378 0
-169 -379 0
-165 -385 0
-166 -386 0
-167 -387 0
-168 -388 0
-169 -389 0
-165 -460 0
-166 -461 0
-167 -462 0
-168 -463 0
-169 -464 0
-165 -310 0
-166 -311 0
-167 -312 0
-168 -313 0
-169 -314 0
-170 -325 0
-171 -326 0
-172 -327 0
-173 -328 0
-174 -329 0
-170 -340 0
-171 -341 0
-172 -342 0
-173 -343 0
-174 -344 0
-170 -350 0
-171 -351 0
-172 -352 0
-173 -353 0
-174 -354 0
-170 -370 0
-171 -371 0
-172 -372 0
-173 -373 0
-174 -374 0
-170 -385 0
-171 -386 0
-172 -387 0
-173 -388 0
-174 -389 0
-170 -460 0
-171 -461 0
-172 -462 0
-173 -463 0
-174 -464 0
-170 -305 0
-171 -306 0
-172 -307 0
-173 -308 0
-174 -309 0
-175 -320 0
-176 -321 0
-177 -322 0
-178 -323 0
-179 -324 0
-175 -335 0
-176 -336 0
-177 -337 0
-178 -338 0
-179 -339 0
-175 -345 0
-176 -346 0
-177 -347 0
-178 -348 0
-179 -349 0
-175 -365 0
-176 -366 0
-177 -367 0
-178 -368 0
-179 -369 0
-175 -380 0
-176 -381 0
-177 -382 0
-178 -383 0
-179 -384 0
-175 -390 0
-176 -391 0
-177 -392 0
-178 -393 0
-179 -394 0
-175 -460 0
-176 -461 0
-177 -462 0
-178 -463 0
-179 -464 0
-180 -335 0
-181 -336 0
-182 -337 0
-183 -338 0
-184 -339 0
-180 -345 0
-181 -346 0
-182 -347 0
-183 -348 0
-184 -349 0
-180 -360 0
-181 -361 0
-182 -362 0
-183 -363 0
-184 -364 0
-180 -380 0
-181 -381 0
-182 -382 0
-183 -383 0
-184 -384 0
-180 -390 0
-181 -391 0
-182 -392 0
-183 -393 0
-184 -394 0
-180 -460 0
-181 -461 0
-182 -462 0
-183 -463 0
-184 -464 0
-180 -315 0
-181 -316 0
-182 -317 0
-183 -318 0
-184 -319 0
-185 -325 0
-186 -326 0
-187 -327 0
-188 -328 0
-189 -329 0
-185 -330 0
-186 -331 0
-187 -332 0
-188 -333 0
-189 -334 0
-185 -340 0
-186 -341 0
-187 -342 0
-188 -343 0
-189 -344 0
-185 -345 0
-186 -346 0
-187 -347 0
-188 -348 0
-189 -349 0
-185 -370 0
-186 -371 0
-187 -372 0
-188 -373 0
-189 -374 0
-185 -375 0
-186 -376 0
-187 -377 0
-188 -378 0
-189 -379 0
-185 -385 0
-186 -386 0
-187 -387 0
-188 -388 0
-189 -389 0
-185 -390 0
-186 -391 0
-187 -392 0
-188 -393 0
-189 -394 0
-185 -460 0
-186 -461 0
-187 -462 0
-188 -463 0
-189 -464 0
-190 -320 0
-191 -321 0
-192 -322 0
-193 -323 0
-194 -324 0
-190 -335 0
-191 -336 0
-192 -337 0
-193 -338 0
-194 -339 0
-190 -345 0
-191 -346 0
-192 -347 0
-193 -348 0
-194 -349 0
-190 -360 0
-191 -361 0
-192 -362 0
-193 -363 0
-194 -364 0
-190 -365 0
-191 -366 0
-192 -367 0
-193 -368 0
-194 -369 0
-190 -380 0
-191 -381 0
-192 -382 0
-193 -383 0
-194 -384 0
-190 -390 0
-191 -391 0
-192 -392 0
-193 -393 0
-194 -394 0
-190 -460 0
-191 -461 0
-192 -462 0
-193 -463 0
-194 -464 0
-190 -315 0
-191 -316 0
-192 -317 0
-193 -318 0
-194 -319 0
-195 -325 0
-196 -326 0
-197 -327 0
-198 -328 0
-199 -329 0
-195 -330 0
-196 -331 0
-197 -332 0
-198 -333 0
-199 -334 0
-195 -335 0
-196 -336 0
-197 -337 0
-198 -338 0
-199 -339 0
-195 -340 0
-196 -341 0
-197 -342 0
-198 -343 0
-199 -344 0
-195 -370 0
-196 -371 0
-197 -372 0
-198 -373 0
-199 -374 0
-195 -375 0
-196 -376 0
-197 -377 0
-198 -378 0
-199 -379 0
-195 -380 0
-196 -381 0
-197 -382 0
-198 -383 0
-199 -384 0
-195 -385 0
-196 -386 0
-197 -387 0
-198 -388 0
-199 -389 0
-195 -460 0
-196 -461 0
-197 -462 0
-198 -463 0
-199 -464 0
-200 -320 0
-201 -321 0
-202 -322 0
-203 -323 0
-204 -324 0
-200 -400 0
-201 -401 0
-202 -402 0
-203 -403 0
-204 -404 0
-200 -410 0
-201 -411 0
-202 -412 0
-203 -413 0
-204 -414 0
-200 -445 0
-201 -446 0
-202 -447 0
-203 -448 0
-204 -449 0
-200 -460 0
-201 -461 0
-202 -462 0
-203 -463 0
-204 -464 0
-200 -310 0
-201 -311 0
-202 -312 0
-203 -313 0
-204 -314 0
-205 -395 0
-206 -396 0
-207 -397 0
-208 -398 0
-209 -399 0
-205 -405 0
-206 -406 0
-207 -407 0
-208 -408 0
-209 -409 0
-205 -305 0
-206 -306 0
-207 -307 0
-208 -308 0
-209 -309 0
-205 -445 0
-206 -446 0
-207 -447 0
-208 -448 0
-209 -449 0
-205 -460 0
-206 -461 0
-207 -462 0
-208 -463 0
-209 -464 0
-205 -315 0
-206 -316 0
-207 -317 0
-208 -318 0
-209 -319 0
-210 -330 0
-211 -331 0
-212 -332 0
-213 -333 0
-214 -334 0
-210 -340 0
-211 -341 0
-212 -342 0
-213 -343 0
-214 -344 0
-210 -400 0
-211 -401 0
-212 -402 0
-213 -403 0
-214 -404 0
-210 -420 0
-211 -421 0
-212 -422 0
-213 -423 0
-214 -424 0
-210 -430 0
-211 -431 0
-212 -432 0
-213 -433 0
-214 -434 0
-210 -445 0
-211 -446 0
-212 -447 0
-213 -448 0
-214 -449 0
-210 -460 0
-211 -461 0
-212 -462 0
-213 -463 0
-214 -464 0
-210 -310 0
-211 -311 0
-212 -312 0
-213 -313 0
-214 -314 0
-215 -325 0
-216 -326 0
-217 -327 0
-218 -328 0
-219 -329 0
-215 -340 0
-216 -341 0
-217 -342 0
-218 -343 0
-219 -344 0
-215 -395 0
-216 -396 0
-217 -397 0
-218 -398 0
-219 -399 0
-215 -305 0
-216 -306 0
-217 -307 0
-218 -308 0
-219 -309 0
-215 -415 0
-216 -416 0
-217 -417 0
-218 -418 0
-219 -419 0
-215 -430 0
-216 -431 0
-217 -432 0
-218 -433 0
-219 -434 0
-215 -445 0
-216 -446 0
-217 -447 0
-218 -448 0
-219 -449 0
-215 -460 0
-216 -461 0
-217 -462 0
-218 -463 0
-219 -464 0
-220 -320 0
-221 -321 0
-222 -322 0
-223 -323 0
-224 -324 0
-220 -445 0
-221 -446 0
-222 -447 0
-223 -448 0
-224 -449 0
-220 -335 0
-221 -336 0
-222 -337 0
-223 -338 0
-224 -339 0
-220 -345 0
-221 -346 0
-222 -347 0
-223 -348 0
-224 -349 0
-220 -410 0
-221 -411 0
-222 -412 0
-223 -413 0
-224 -414 0
-220 -425 0
-221 -426 0
-222 -427 0
-223 -428 0
-224 -429 0
-220 -435 0
-221 -436 0
-222 -437 0
-223 -438 0
-224 -439 0
-220 -460 0
-221 -461 0
-222 -462 0
-223 -463 0
-224 -464 0
-225 -445 0
-226 -446 0
-227 -447 0
-228 -448 0
-229 -449 0
-225 -335 0
-226 -336 0
-227 -337 0
-228 -338 0
-229 -339 0
-225 -345 0
-226 -346 0
-227 -347 0
-228 -348 0
-229 -349 0
-225 -405 0
-226 -406 0
-227 -407 0
-228 -408 0
-229 -409 0
-225 -425 0
-226 -426 0
-227 -427 0
-228 -428 0
-229 -429 0
-225 -435 0
-226 -436 0
-227 -437 0
-228 -438 0
-229 -439 0
-225 -460 0
-226 -461 0
-227 -462 0
-228 -463 0
-229 -464 0
-225 -315 0
-226 -316 0
-227 -317 0
-228 -318 0
-229 -319 0
-230 -445 0
-231 -446 0
-232 -447 0
-233 -448 0
-234 -449 0
-230 -325 0
-231 -326 0
-232 -327 0
-233 -328 0
-234 -329 0
-230 -330 0
-231 -331 0
-232 -332 0
-233 -333 0
-234 -334 0
-230 -340 0
-231 -341 0
-232 -342 0
-233 -343 0
-234 -344 0
-230 -345 0
-231 -346 0
-232 -347 0
-233 -348 0
-234 -349 0
-230 -415 0
-231 -416 0
-232 -417 0
-233 -418 0
-234 -419 0
-230 -420 0
-231 -421 0
-232 -422 0
-233 -423 0
-234 -424 0
-230 -430 0
-231 -431 0
-232 -432 0
-233 -433 0
-234 -434 0
-230 -435 0
-231 -436 0
-232 -437 0
-233 -438 0
-234 -439 0
-230 -460 0
-231 -461 0
-232 -462 0
-233 -463 0
-234 -464 0
-235 -320 0
-236 -321 0
-237 -322 0
-238 -323 0
-239 -324 0
-235 -445 0
-236 -446 0
-237 -447 0
-238 -448 0
-239 -449 0
-235 -335 0
-236 -336 0
-237 -337 0
-238 -338 0
-239 -339 0
-235 -345 0
-236 -346 0
-237 -347 0
-238 -348 0
-239 -349 0
-235 -405 0
-236 -406 0
-237 -407 0
-238 -408 0
-239 -409 0
-235 -410 0
-236 -411 0
-237 -412 0
-238 -413 0
-239 -414 0
-235 -425 0
-236 -426 0
-237 -427 0
-238 -428 0
-239 -429 0
-235 -435 0
-236 -436 0
-237 -437 0
-238 -438 0
-239 -439 0
-235 -460 0
-236 -461 0
-237 -462 0
-238 -463 0
-239 -464 0
-235 -315 0
-236 -316 0
-237 -317 0
-238 -318 0
-239 -319 0
-240 -445 0
-241 -446 0
-242 -447 0
-243 -448 0
-244 -449 0
-240 -325 0
-241 -326 0
-242 -327 0
-243 -328 0
-244 -329 0
-240 -330 0
-241 -331 0
-242 -332 0
-243 -333 0
-244 -334 0
-240 -335 0
-241 -336 0
-242 -337 0
-243 -338 0
-244 -339 0
-240 -340 0
-241 -341 0
-242 -342 0
-243 -343 0
-244 -344 0
-240 -415 0
-241 -416 0
-242 -417 0
-243 -418 0
-244 -419 0
-240 -420 0
-241 -421 0
-242 -422 0
-243 -423 0
-244 -424 0
-240 -425 0
-241 -426 0
-242 -427 0
-243 -428 0
-244 -429 0
-240 -430 0
-241 -431 0
-242 -432 0
-243 -433 0
-244 -434 0
-240 -460 0
-241 -461 0
-242 -462 0
-243 -463 0
-244 -464 0
-245 -355 0
-246 -356 0
-247 -357 0
-248 -358 0
-249 -359 0
-245 -365 0
-246 -366 0
-247 -367 0
-248 -368 0
-249 -369 0
-245 -460 0
-246 -461 0
-247 -462 0
-248 -463 0
-249 -464 0
-245 -440 0
-246 -441 0
-247 -442 0
-248 -443 0
-249 -444 0
-245 -450 0
-246 -451 0
-247 -452 0
-248 -453 0
-249 -454 0
-250 -350 0
-251 -351 0
-252 -352 0
-253 -353 0
-254 -354 0
-250 -360 0
-251 -361 0
-252 -362 0
-253 -363 0
-254 -364 0
-250 -460 0
-251 -461 0
-252 -462 0
-253 -463 0
-254 -464 0
-250 -440 0
-251 -441 0
-252 -442 0
-253 -443 0
-254 -444 0
-250 -450 0
-251 -451 0
-252 -452 0
-253 -453 0
-254 -454 0
-255 -355 0
-256 -356 0
-257 -357 0
-258 -358 0
-259 -359 0
-255 -375 0
-256 -376 0
-257 -377 0
-258 -378 0
-259 -379 0
-255 -385 0
-256 -386 0
-257 -387 0
-258 -388 0
-259 -389 0
-255 -460 0
-256 -461 0
-257 -462 0
-258 -463 0
-259 -464 0
-255 -440 0
-256 -441 0
-257 -442 0
-258 -443 0
-259 -444 0
-255 -450 0
-256 -451 0
-257 -452 0
-258 -453 0
-259 -454 0
-260 -350 0
-261 -351 0
-262 -352 0
-263 -353 0
-264 -354 0
-260 -370 0
-261 -371 0
-262 -372 0
-263 -373 0
-264 -374 0
-260 -385 0
-261 -386 0
-262 -387 0
-263 -388 0
-264 -389 0
-260 -460 0
-261 -461 0
-262 -462 0
-263 -463 0
-264 -464 0
-260 -440 0
-261 -441 0
-262 -442 0
-263 -443 0
-264 -444 0
-260 -450 0
-261 -451 0
-262 -452 0
-263 -453 0
-264 -454 0
-265 -365 0
-266 -366 0
-267 -367 0
-268 -368 0
-269 -369 0
-265 -380 0
-266 -381 0
-267 -382 0
-268 -383 0
-269 -384 0
-265 -390 0
-266 -391 0
-267 -392 0
-268 -393 0
-269 -394 0
-265 -460 0
-266 -461 0
-267 -462 0
-268 -463 0
-269 -464 0
-265 -440 0
-266 -441 0
-267 -442 0
-268 -443 0
-269 -444 0
-265 -450 0
-266 -451 0
-267 -452 0
-268 -453 0
-269 -454 0
-270 -360 0
-271 -361 0
-272 -362 0
-273 -363 0
-274 -364 0
-270 -380 0
-271 -381 0
-272 -382 0
-273 -383 0
-274 -384 0
-270 -390 0
-271 -391 0
-272 -392 0
-273 -393 0
-274 -394 0
-270 -460 0
-271 -461 0
-272 -462 0
-273 -463 0
-274 -464 0
-270 -440 0
-271 -441 0
-272 -442 0
-273 -443 0
-274 -444 0
-270 -450 0
-271 -451 0
-272 -452 0
-273 -453 0
-274 -454 0
-275 -370 0
-276 -371 0
-277 -372 0
-278 -373 0
-279 -374 0
-275 -375 0
-276 -376 0
-277 -377 0
-278 -378 0
-279 -379 0
-275 -385 0
-276 -386 0
-277 -387 0
-278 -388 0
-279 -389 0
-275 -390 0
-276 -391 0
-277 -392 0
-278 -393 0
-279 -394 0
-275 -460 0
-276 -461 0
-277 -462 0
-278 -463 0
-279 -464 0
-275 -440 0
-276 -441 0
-277 -442 0
-278 -443 0
-279 -444 0
-275 -450 0
-276 -451 0
-277 -452 0
-278 -453 0
-279 -454 0
-280 -360 0
-281 -361 0
-282 -362 0
-283 -363 0
-284 -364 0
-280 -365 0
-281 -366 0
-282 -367 0
-283 -368 0
-284 -369 0
-280 -380 0
-281 -381 0
-282 -382 0
-283 -383 0
-284 -384 0
-280 -390 0
-281 -391 0
-282 -392 0
-283 -393 0
-284 -394 0
-280 -460 0
-281 -461 0
-282 -462 0
-283 -463 0
-284 -464 0
-280 -440 0
-281 -441 0
-282 -442 0
-283 -443 0
-284 -444 0
-280 -450 0
-281 -451 0
-282 -452 0
-283 -453 0
-284 -454 0
-285 -370 0
-286 -371 0
-287 -372 0
-288 -373 0
-289 -374 0
-285 -375 0
-286 -376 0
-287 -377 0
-288 -378 0
-289 -379 0
-285 -380 0
-286 -381 0
-287 -382 0
-288 -383 0
-289 -384 0
-285 -385 0
-286 -386 0
-287 -387 0
-288 -388 0
-289 -389 0
-285 -460 0
-286 -461 0
-287 -462 0
-288 -463 0
-289 -464 0
-285 -440 0
-286 -441 0
-287 -442 0
-288 -443 0
-289 -444 0
-285 -450 0
-286 -451 0
-287 -452 0
-288 -453 0
-289 -454 0
-290 -395 0
-291 -396 0
-292 -397 0
-293 -398 0
-294 -399 0
-290 -400 0
-291 -401 0
-292 -402 0
-293 -403 0
-294 -404 0
-290 -405 0
-291 -406 0
-292 -407 0
-293 -408 0
-294 -409 0
-290 -410 0
-291 -411 0
-292 -412 0
-293 -413 0
-294 -414 0
-290 -415 0
-291 -416 0
-292 -417 0
-293 -418 0
-294 -419 0
-290 -420 0
-291 -421 0
-292 -422 0
-293 -423 0
-294 -424 0
-290 -425 0
-291 -426 0
-292 -427 0
-293 -428 0
-294 -429 0
-290 -430 0
-291 -431 0
-292 -432 0
-293 -433 0
-294 -434 0
-290 -435 0
-291 -436 0
-292 -437 0
-293 -438 0
-294 -439 0
-290 -445 0
-291 -446 0
-292 -447 0
-293 -448 0
-294 -449 0
-290 -450 0
-291 -451 0
-292 -452 0
-293 -453 0
-294 -454 0
-290 -460 0
-291 -461 0
-292 -462 0
-293 -463 0
-294 -464 0
-295 -350 0
-296 -351 0
-297 -352 0
-298 -353 0
-299 -354 0
-295 -355 0
-296 -356 0
-297 -357 0
-298 -358 0
-299 -359 0
-295 -360 0
-296 -361 0
-297 -362 0
-298 -363 0
-299 -364 0
-295 -365 0
-296 -366 0
-297 -367 0
-298 -368 0
-299 -369 0
-295 -370 0
-296 -371 0
-297 -372 0
-298 -373 0
-299 -374 0
-295 -375 0
-296 -376 0
-297 -377 0
-298 -378 0
-299 -379 0
-295 -380 0
-296 -381 0
-297 -382 0
-298 -383 0
-299 -384 0
-295 -385 0
-296 -386 0
-297 -387 0
-298 -388 0
-299 -389 0
-295 -390 0
-296 -391 0
-297 -392 0
-298 -393 0
-299 -394 0
-295 -440 0
-296 -441 0
-297 -442 0
-298 -443 0
-299 -444 0
-295 -450 0
-296 -451 0
-297 -452 0
-298 -453 0
-299 -454 0
-295 -460 0
-296 -461 0
-297 -462 0
-298 -463 0
-299 -464 0
-300 -395 0
-301 -396 0
-302 -397 0
-303 -398 0
-304 -399 0
-300 -400 0
-301 -401 0
-302 -402 0
-303 -403 0
-304 -404 0
-300 -405 0
-301 -406 0
-302 -407 0
-303 -408 0
-304 -409 0
-300 -410 0
-301 -411 0
-302 -412 0
-303 -413 0
-304 -414 0
-300 -415 0
-301 -416 0
-302 -417 0
-303 -418 0
-304 -419 0
-300 -420 0
-301 -421 0
-302 -422 0
-303 -423 0
-304 -424 0
-300 -425 0
-301 -426 0
-302 -427 0
-303 -428 0
-304 -429 0
-300 -430 0
-301 -431 0
-302 -432 0
-303 -433 0
-304 -434 0
-300 -435 0
-301 -436 0
-302 -437 0
-303 -438 0
-304 -439 0
-300 -440 0
-301 -441 0
-302 -442 0
-303 -443 0
-304 -444 0
-300 -445 0
-301 -446 0
-302 -447 0
-303 -448 0
-304 -449 0
-300 -460 0
-301 -461 0
-302 -462 0
-303 -463 0
-304 -464 0
-305 -455 0
-306 -456 0
-307 -457 0
-308 -458 0
-309 -459 0
-305 -465 0
-306 -466 0
-307 -467 0
-308 -468 0
-309 -469 0
-310 -455 0
-311 -456 0
-312 -457 0
-313 -458 0
-314 -459 0
-310 -465 0
-311 -466 0
-312 -467 0
-313 -468 0
-314 -469 0
-315 -455 0
-316 -456 0
-317 -457 0
-318 -458 0
-319 -459 0
-315 -465 0
-316 -466 0
-317 -467 0
-318 -468 0
-319 -469 0
-320 -455 0
-321 -456 0
-322 -457 0
-323 -458 0
-324 -459 0
-320 -465 0
-321 -466 0
-322 -467 0
-323 -468 0
-324 -469 0
-325 -455 0
-326 -456 0
-327 -457 0
-328 -458 0
-329 -459 0
-325 -465 0
-326 -466 0
-327 -467 0
-328 -468 0
-329 -469 0
-330 -455 0
-331 -456 0
-332 -457 0
-333 -458 0
-334 -459 0
-330 -465 0
-331 -466 0
-332 -467 0
-333 -468 0
-334 -469 0
-335 -455 0
-336 -456 0
-337 -457 0
-338 -458 0
-339 -459 0
-335 -465 0
-336 -466 0
-337 -467 0
-338 -468 0
-339 -469 0
-340 -455 0
-341 -456 0
-342 -457 0
-343 -458 0
-344 -459 0
-340 -465 0
-341 -466 0
-342 -467 0
-343 -468 0
-344 -469 0
-345 -455 0
-346 -456 0
-347 -457 0
-348 -458 0
-349 -459 0
-345 -465 0
-346 -466 0
-347 -467 0
-348 -468 0
-349 -469 0
-350 -455 0
-351 -456 0
-352 -457 0
-353 -458 0
-354 -459 0
-350 -465 0
-351 -466 0
-352 -467 0
-353 -468 0
-354 -469 0
-355 -455 0
-356 -456 0
-357 -457 0
-358 -458 0
-359 -459 0
-355 -465 0
-356 -466 0
-357 -467 0
-358 -468 0
-359 -469 0
-360 -455 0
-361 -456 0
-362 -457 0
-363 -458 0
-364 -459 0
-360 -465 0
-361 -466 0
-362 -467 0
-363 -468 0
-364 -469 0
-365 -455 0
-366 -456 0
-367 -457 0
-368 -458 0
-369 -459 0
-365 -465 0
-366 -466 0
-367 -467 0
-368 -468 0
-369 -469 0
-370 -455 0
-371 -456 0
-372 -457 0
-373 -458 0
-374 -459 0
-370 -465 0
-371 -466 0
-372 -467 0
-373 -468 0
-374 -469 0
-375 -455 0
-376 -456 0
-377 -457 0
-378 -458 0
-379 -459 0
-375 -465 0
-376 -466 0
-377 -467 0
-378 -468 0
-379 -469 0
-380 -455 0
-381 -456 0
-382 -457 0
-383 -458 0
-384 -459 0
-380 -465 0
-381 -466 0
-382 -467 0
-383 -468 0
-384 -469 0
-385 -455 0
-386 -456 0
-387 -457 0
-388 -458 0
-389 -459 0
-385 -465 0
-386 -466 0
-387 -467 0
-388 -468 0
-389 -469 0
-390 -455 0
-391 -456 0
-392 -457 0
-393 -458 0
-394 -459 0
-390 -465 0
-391 -466 0
-392 -467 0
-393 -468 0
-394 -469 0
-395 -455 0
-396 -456 0
-397 -457 0
-398 -458 0
-399 -459 0
-395 -465 0
-396 -466 0
-397 -467 0
-398 -468 0
-399 -469 0
-400 -455 0
-401 -456 0
-402 -457 0
-403 -458 0
-404 -459 0
-400 -465 0
-401 -466 0
-402 -467 0
-403 -468 0
-404 -469 0
-405 -455 0
-406 -456 0
-407 -457 0
-408 -458 0
-409 -459 0
-405 -465 0
-406 -466 0
-407 -467 0
-408 -468 0
-409 -469 0
-410 -455 0
-411 -456 0
-412 -457 0
-413 -458 0
-414 -459 0
-410 -465 0
-411 -466 0
-412 -467 0
-413 -468 0
-414 -469 0
-415 -455 0
-416 -456 0
-417 -457 0
-418 -458 0
-419 -459 0
-415 -465 0
-416 -466 0
-417 -467 0
-418 -468 0
-419 -469 0
-420 -455 0
-421 -456 0
-422 -457 0
-423 -458 0
-424 -459 0
-420 -465 0
-421 -466 0
-422 -467 0
-423 -468 0
-424 -469 0
-425 -455 0
-426 -456 0
-427 -457 0
-428 -458 0
-429 -459 0
-425 -465 0
-426 -466 0
-427 -467 0
-428 -468 0
-429 -469 0
-430 -455 0
-431 -456 0
-432 -457 0
-433 -458 0
-434 -459 0
-430 -465 0
-431 -466 0
-432 -467 0
-433 -468 0
-434 -469 0
-435 -455 0
-436 -456 0
-437 -457 0
-438 -458 0
-439 -459 0
-435 -465 0
-436 -466 0
-437 -467 0
-438 -468 0
-439 -469 0
-440 -455 0
-441 -456 0
-442 -457 0
-443 -458 0
-444 -459 0
-440 -465 0
-441 -466 0
-442 -467 0
-443 -468 0
-444 -469 0
-445 -455 0
-446 -456 0
-447 -457 0
-448 -458 0
-449 -459 0
-445 -465 0
-446 -466 0
-447 -467 0
-448 -468 0
-449 -469 0
-450 -455 0
-451 -456 0
-452 -457 0
-453 -458 0
-454 -459 0
-450 -465 0
-451 -466 0
-452 -467 0
-453 -468 0
-454 -469 0
-455 -460 0
-456 -461 0
-457 -462 0
-458 -463 0
-459 -464 0
-455 -465 0
-456 -466 0
-457 -467 0
-458 -468 0
-459 -469 0
-460 -465 0
-461 -466 0
-462 -467 0
-463 -468 0
-464 -469 0
